/*********************************************
 * OPL 12.9.0.0 Data
 * Author: StHowling
 * Creation Date: 2019年4月1日 at 上午3:48:02
 *********************************************/

 Machine = { "grinder", "vertical drill", "horizontal drill", "borer", "planer" };
 Product = { "PROD1", "PROD2", "PROD3", "PROD4", "PROD5", "PROD6", "PROD7" };
 Month = {0,1,2,3,4,5,6};
 
 Profit = [10.0 , 6.0 , 8.0 , 4.0 , 11.0 , 9.0 , 3.0 ];
 Timeconsumption = [[0.5,0.1,0.2,0.05,0],[0.7,0.2,0,0.03,0],[0,0,0.8,0,0.01],[0,0.3,0,0.07,0],[0.3,0,0,0.1,0.05],[0.2,0.6,0,0,0][0.5,0,0.6,0.08,0.05]];
 Number = [4,2,3,1,1];
 Workhour=384.0;
 Marketlimit=[[0,500.0,600.0,300.0,200.0,0,500.0],[0,1000.0,500.0,600.0,300.0,100.0,500.0],[0,300.0,200.0,0,400.0,500.0,100.0],[0,300.0,0,0,500.0,100.0,300.0],[0,800.0,400.0,500.0,200.0,1000.0,1100.0],[0,200.0,300.0,400.0,0,300.0,500.0],[0,100.0,150.0,100.0,100.0,0,60.0]];
 Maxstorage=[100.0,100.0,100.0,100.0,100.0,100.0,100.0];
 Storecost=[0.5,0.5,0.5,0.5,0.5,0.5,0.5];
 Initialstorage=[0,0,0,0,0,0,0];
 Finalstorage=[50.0,50.0,50.0,50.0,50.0,50.0,50.0];